0 1
1 3
3 2
2 4
4 6
6 5
5 7
7 8
8 12
12 14
14 19
19 22
22 24
24 25
25 21
21 23
23 27
27 26
26 30
30 35
35 33
33 32
32 36
36 34
34 31
31 29
29 28
28 20
20 13
13 9
9 15
15 16
16 17
17 18
18 11
11 10
10 37
37 0
